c Generated map
c Size: 10 * 10, weights in range: 1 to 10, walls: True, with ratio 0.1
c dim 3 of 6
c
p sp 100 146
c graph contains 100 nodes and 146 arcs
c
a 1 11 5
a 11 1 5
a 1 2 8
a 2 1 8
a 2 12 5
a 12 2 5
a 2 3 6
a 3 2 6
a 3 13 4
a 13 3 4
a 3 4 6
a 4 3 6
a 4 14 6
a 14 4 6
a 4 5 1
a 5 4 1
a 5 15 7
a 15 5 7
a 5 6 3
a 6 5 3
a 6 7 8
a 7 6 8
a 7 17 3
a 17 7 3
a 7 8 5
a 8 7 5
a 8 9 8
a 9 8 8
a 9 19 2
a 19 9 2
a 9 10 3
a 10 9 3
a 10 20 8
a 20 10 8
a 11 21 4
a 21 11 4
a 11 12 3
a 12 11 3
a 12 22 1
a 22 12 1
a 12 13 9
a 13 12 9
a 13 23 9
a 23 13 9
a 13 14 1
a 14 13 1
a 14 24 7
a 24 14 7
a 14 15 10
a 15 14 10
a 15 25 3
a 25 15 3
a 17 27 1
a 27 17 1
a 19 29 9
a 29 19 9
a 19 20 7
a 20 19 7
a 20 30 7
a 30 20 7
a 21 31 7
a 31 21 7
a 21 22 8
a 22 21 8
a 22 32 2
a 32 22 2
a 22 23 1
a 23 22 1
a 23 24 3
a 24 23 3
a 24 25 1
a 25 24 1
a 25 35 5
a 35 25 5
a 25 26 7
a 26 25 7
a 26 36 1
a 36 26 1
a 26 27 1
a 27 26 1
a 27 37 8
a 37 27 8
a 27 28 5
a 28 27 5
a 28 38 3
a 38 28 3
a 28 29 4
a 29 28 4
a 29 39 10
a 39 29 10
a 29 30 5
a 30 29 5
a 30 40 9
a 40 30 9
a 31 41 10
a 41 31 10
a 31 32 7
a 32 31 7
a 32 42 6
a 42 32 6
a 35 45 7
a 45 35 7
a 35 36 3
a 36 35 3
a 36 46 7
a 46 36 7
a 36 37 8
a 37 36 8
a 37 47 10
a 47 37 10
a 37 38 4
a 38 37 4
a 38 48 9
a 48 38 9
a 38 39 7
a 39 38 7
a 39 40 10
a 40 39 10
a 41 51 6
a 51 41 6
a 41 42 3
a 42 41 3
a 42 52 3
a 52 42 3
a 42 43 6
a 43 42 6
a 43 44 10
a 44 43 10
a 44 54 2
a 54 44 2
a 44 45 5
a 45 44 5
a 45 55 1
a 55 45 1
a 45 46 3
a 46 45 3
a 46 56 8
a 56 46 8
a 46 47 3
a 47 46 3
a 47 57 5
a 57 47 5
a 47 48 10
a 48 47 10
a 48 58 1
a 58 48 1
a 51 61 2
a 61 51 2
a 51 52 5
a 52 51 5
a 52 62 9
a 62 52 9
a 54 64 2
a 64 54 2
a 54 55 2
a 55 54 2
a 55 65 3
a 65 55 3
a 55 56 10
a 56 55 10
a 56 66 3
a 66 56 3
a 56 57 9
a 57 56 9
a 57 67 10
a 67 57 10
a 57 58 2
a 58 57 2
a 58 68 7
a 68 58 7
a 58 59 9
a 59 58 9
a 59 69 5
a 69 59 5
a 59 60 7
a 60 59 7
a 60 70 6
a 70 60 6
a 61 71 5
a 71 61 5
a 61 62 7
a 62 61 7
a 62 72 3
a 72 62 3
a 64 74 5
a 74 64 5
a 64 65 2
a 65 64 2
a 65 66 1
a 66 65 1
a 66 76 10
a 76 66 10
a 66 67 2
a 67 66 2
a 67 77 7
a 77 67 7
a 67 68 3
a 68 67 3
a 68 78 1
a 78 68 1
a 68 69 7
a 69 68 7
a 69 79 6
a 79 69 6
a 69 70 5
a 70 69 5
a 70 80 1
a 80 70 1
a 71 81 2
a 81 71 2
a 71 72 3
a 72 71 3
a 72 82 8
a 82 72 8
a 72 73 4
a 73 72 4
a 73 83 5
a 83 73 5
a 73 74 4
a 74 73 4
a 74 84 3
a 84 74 3
a 76 86 10
a 86 76 10
a 76 77 8
a 77 76 8
a 77 87 6
a 87 77 6
a 77 78 3
a 78 77 3
a 78 88 1
a 88 78 1
a 78 79 9
a 79 78 9
a 79 89 3
a 89 79 3
a 79 80 6
a 80 79 6
a 80 90 2
a 90 80 2
a 81 82 10
a 82 81 10
a 82 92 2
a 92 82 2
a 82 83 6
a 83 82 6
a 83 93 8
a 93 83 8
a 83 84 1
a 84 83 1
a 84 94 8
a 94 84 8
a 84 85 7
a 85 84 7
a 85 95 3
a 95 85 3
a 85 86 3
a 86 85 3
a 86 96 6
a 96 86 6
a 86 87 7
a 87 86 7
a 87 97 7
a 97 87 7
a 87 88 6
a 88 87 6
a 88 98 2
a 98 88 2
a 88 89 7
a 89 88 7
a 89 99 1
a 99 89 1
a 89 90 5
a 90 89 5
a 90 100 1
a 100 90 1
a 92 93 4
a 93 92 4
a 93 94 3
a 94 93 3
a 94 95 2
a 95 94 2
a 95 96 1
a 96 95 1
a 96 97 3
a 97 96 3
a 97 98 2
a 98 97 2
a 98 99 7
a 99 98 7
a 99 100 1
a 100 99 1
